(set-info :smt-lib-version 2.6)
(set-logic UF)
(set-info :source |Benchmarks from the paper: "Extending Sledgehammer with SMT Solvers" by Jasmin Blanchette, Sascha Bohme, and Lawrence C. Paulson, CADE 2011.  Translated to SMT2 by Andrew Reynolds and Morgan Deters.|)
(set-info :category "industrial")
(set-info :status sat)
(declare-sort S1 0)
(declare-sort S2 0)
(declare-sort S3 0)
(declare-sort S4 0)
(declare-sort S5 0)
(declare-sort S6 0)
(declare-sort S7 0)
(declare-sort S8 0)
(declare-sort S9 0)
(declare-sort S10 0)
(declare-sort S11 0)
(declare-sort S12 0)
(declare-sort S13 0)
(declare-fun f1 () S1)
(declare-fun f2 () S1)
(declare-fun f3 (S3 S2) S1)
(declare-fun f4 () S3)
(declare-fun f5 (S5 S4) S1)
(declare-fun f6 () S5)
(declare-fun f7 (S6) S1)
(declare-fun f8 () S6)
(declare-fun f9 () S1)
(declare-fun f10 () S6)
(declare-fun f11 (S6) S1)
(declare-fun f12 (S4 S5) S1)
(declare-fun f13 (S7) S5)
(declare-fun f14 () S7)
(declare-fun f15 (S3 S3) S1)
(declare-fun f16 () S3)
(declare-fun f17 (S8 S3) S3)
(declare-fun f18 (S2) S8)
(declare-fun f19 (S9 S6) S2)
(declare-fun f20 () S9)
(declare-fun f21 (S10 S4) S6)
(declare-fun f22 () S10)
(declare-fun f23 () S3)
(declare-fun f24 () S1)
(declare-fun f25 (S11 S12) S6)
(declare-fun f26 () S11)
(declare-fun f27 (S7 S4) S12)
(declare-fun f28 (S2 S3) S1)
(declare-fun f29 (S13 S5) S5)
(declare-fun f30 (S4) S13)
(declare-fun f31 () S5)
(declare-fun f32 () S1)
(declare-fun f33 (S3) S3)
(declare-fun f34 (S5) S5)
(assert (not (= f1 f2)))
(assert (forall ((?v0 S2)) (= (= (f3 f4 ?v0) f1) false)))
(assert (forall ((?v0 S4)) (= (= (f5 f6 ?v0) f1) false)))
(assert (not (= (f7 f8) f1)))
(assert (= f9 f1))
(assert (= (f7 f10) f1))
(assert (= (f11 f8) f1))
(assert (forall ((?v0 S4)) (=> (= (f12 ?v0 (f13 f14)) f1) (= (f15 f16 (f17 (f18 (f19 f20 (f21 f22 ?v0))) f23)) f1))))
(assert (forall ((?v0 S3)) (= (f15 ?v0 f23) f1)))
(assert (forall ((?v0 S3) (?v1 S3) (?v2 S3)) (=> (= (f15 ?v0 ?v1) f1) (=> (= (f15 ?v2 ?v0) f1) (= (f15 ?v2 ?v1) f1)))))
(assert (forall ((?v0 S3) (?v1 S2) (?v2 S3)) (let ((?v_0 (f18 ?v1))) (=> (= (f15 ?v0 (f17 ?v_0 f23)) f1) (=> (= (f15 ?v0 ?v2) f1) (= (f15 ?v0 (f17 ?v_0 ?v2)) f1))))))
(assert (forall ((?v0 S3) (?v1 S2) (?v2 S3)) (let ((?v_0 (f18 ?v1))) (=> (= (f15 ?v0 (f17 ?v_0 ?v2)) f1) (and (= (f15 ?v0 (f17 ?v_0 f23)) f1) (= (f15 ?v0 ?v2) f1))))))
(assert (forall ((?v0 S3) (?v1 S6)) (=> (= f24 f1) (=> (forall ((?v2 S4)) (=> (= (f12 ?v2 (f13 f14)) f1) (= (f15 ?v0 (f17 (f18 (f19 f20 (f21 f22 ?v2))) f23)) f1))) (=> (= (f7 ?v1) f1) (= (f15 ?v0 (f17 (f18 (f19 f20 ?v1)) f23)) f1))))))
(assert (forall ((?v0 S4) (?v1 S3)) (let ((?v_0 (f18 (f19 f20 (f21 f22 ?v0))))) (=> (= (f15 (f17 ?v_0 ?v1) (f17 (f18 (f19 f20 (f25 f26 (f27 f14 ?v0)))) f23)) f1) (= (f15 ?v1 (f17 ?v_0 f23)) f1)))))
(assert (forall ((?v0 S2) (?v1 S2) (?v2 S3)) (=> (= (f28 ?v0 (f17 (f18 ?v1) ?v2)) f1) (=> (=> (= ?v0 ?v1) false) (=> (=> (= (f28 ?v0 ?v2) f1) false) false)))))
(assert (forall ((?v0 S4) (?v1 S4) (?v2 S5)) (=> (= (f12 ?v0 (f29 (f30 ?v1) ?v2)) f1) (=> (=> (= ?v0 ?v1) false) (=> (=> (= (f12 ?v0 ?v2) f1) false) false)))))
(assert (forall ((?v0 S2) (?v1 S3) (?v2 S2)) (=> (=> (not (= (f28 ?v0 ?v1) f1)) (= ?v0 ?v2)) (= (f28 ?v0 (f17 (f18 ?v2) ?v1)) f1))))
(assert (forall ((?v0 S4) (?v1 S5) (?v2 S4)) (=> (=> (not (= (f12 ?v0 ?v1) f1)) (= ?v0 ?v2)) (= (f12 ?v0 (f29 (f30 ?v2) ?v1)) f1))))
(assert (forall ((?v0 S4)) (=> (= (f12 ?v0 f31) f1) false)))
(assert (forall ((?v0 S2)) (=> (= (f28 ?v0 f23) f1) false)))
(assert (forall ((?v0 S2) (?v1 S3)) (not (= f23 (f17 (f18 ?v0) ?v1)))))
(assert (forall ((?v0 S4) (?v1 S5)) (not (= f31 (f29 (f30 ?v0) ?v1)))))
(assert (forall ((?v0 S2) (?v1 S3)) (not (= (f17 (f18 ?v0) ?v1) f23))))
(assert (forall ((?v0 S4) (?v1 S5)) (not (= (f29 (f30 ?v0) ?v1) f31))))
(assert (forall ((?v0 S2) (?v1 S2)) (= (= (f28 ?v0 (f17 (f18 ?v1) f23)) f1) (= ?v0 ?v1))))
(assert (forall ((?v0 S4) (?v1 S4)) (= (= (f12 ?v0 (f29 (f30 ?v1) f31)) f1) (= ?v0 ?v1))))
(assert (forall ((?v0 S2) (?v1 S2) (?v2 S2) (?v3 S2)) (= (= (f17 (f18 ?v0) (f17 (f18 ?v1) f23)) (f17 (f18 ?v2) (f17 (f18 ?v3) f23))) (or (and (= ?v0 ?v2) (= ?v1 ?v3)) (and (= ?v0 ?v3) (= ?v1 ?v2))))))
(assert (forall ((?v0 S4) (?v1 S4) (?v2 S4) (?v3 S4)) (= (= (f29 (f30 ?v0) (f29 (f30 ?v1) f31)) (f29 (f30 ?v2) (f29 (f30 ?v3) f31))) (or (and (= ?v0 ?v2) (= ?v1 ?v3)) (and (= ?v0 ?v3) (= ?v1 ?v2))))))
(assert (forall ((?v0 S2) (?v1 S2)) (=> (= (f28 ?v0 (f17 (f18 ?v1) f23)) f1) (=> (=> (= ?v0 ?v1) false) false))))
(assert (forall ((?v0 S4) (?v1 S4)) (=> (= (f12 ?v0 (f29 (f30 ?v1) f31)) f1) (=> (=> (= ?v0 ?v1) false) false))))
(assert (forall ((?v0 S2) (?v1 S2)) (=> (= (f17 (f18 ?v0) f23) (f17 (f18 ?v1) f23)) (= ?v0 ?v1))))
(assert (forall ((?v0 S4) (?v1 S4)) (=> (= (f29 (f30 ?v0) f31) (f29 (f30 ?v1) f31)) (= ?v0 ?v1))))
(assert (forall ((?v0 S2)) (= (= (f3 f23 ?v0) f1) (= f32 f1))))
(assert (forall ((?v0 S4)) (= (= (f5 f31 ?v0) f1) (= f32 f1))))
(assert (forall ((?v0 S5) (?v1 S4)) (=> (= ?v0 f31) (not (= (f12 ?v1 ?v0) f1)))))
(assert (forall ((?v0 S3) (?v1 S2)) (=> (= ?v0 f23) (not (= (f28 ?v1 ?v0) f1)))))
(assert (forall ((?v0 S3)) (= (= (f33 ?v0) f23) (forall ((?v1 S2)) (not (= (f3 ?v0 ?v1) f1))))))
(assert (forall ((?v0 S5)) (= (= (f34 ?v0) f31) (forall ((?v1 S4)) (not (= (f5 ?v0 ?v1) f1))))))
(assert (forall ((?v0 S4)) (= (= (f12 ?v0 f31) f1) false)))
(assert (forall ((?v0 S2)) (= (= (f28 ?v0 f23) f1) false)))
(assert (forall ((?v0 S3)) (= (= f23 (f33 ?v0)) (forall ((?v1 S2)) (not (= (f3 ?v0 ?v1) f1))))))
(assert (forall ((?v0 S5)) (= (= f31 (f34 ?v0)) (forall ((?v1 S4)) (not (= (f5 ?v0 ?v1) f1))))))
(assert (forall ((?v0 S5)) (= (forall ((?v1 S4)) (=> (= (f12 ?v1 f31) f1) (= (f5 ?v0 ?v1) f1))) true)))
(assert (forall ((?v0 S3)) (= (forall ((?v1 S2)) (=> (= (f28 ?v1 f23) f1) (= (f3 ?v0 ?v1) f1))) true)))
(assert (forall ((?v0 S5)) (= (exists ((?v1 S4)) (and (= (f12 ?v1 f31) f1) (= (f5 ?v0 ?v1) f1))) false)))
(assert (forall ((?v0 S3)) (= (exists ((?v1 S2)) (and (= (f28 ?v1 f23) f1) (= (f3 ?v0 ?v1) f1))) false)))
(assert (forall ((?v0 S5)) (= (exists ((?v1 S4)) (= (f12 ?v1 ?v0) f1)) (not (= ?v0 f31)))))
(assert (forall ((?v0 S3)) (= (exists ((?v1 S2)) (= (f28 ?v1 ?v0) f1)) (not (= ?v0 f23)))))
(assert (forall ((?v0 S5)) (= (forall ((?v1 S4)) (not (= (f12 ?v1 ?v0) f1))) (= ?v0 f31))))
(assert (forall ((?v0 S3)) (= (forall ((?v1 S2)) (not (= (f28 ?v1 ?v0) f1))) (= ?v0 f23))))
(assert (= f23 (f33 f4)))
(assert (= f31 (f34 f6)))
(assert (forall ((?v0 S2) (?v1 S3)) (=> (= (f28 ?v0 ?v1) f1) (= (f17 (f18 ?v0) ?v1) ?v1))))
(assert (forall ((?v0 S4) (?v1 S5)) (=> (= (f12 ?v0 ?v1) f1) (= (f29 (f30 ?v0) ?v1) ?v1))))
(assert (forall ((?v0 S2) (?v1 S3) (?v2 S2)) (=> (= (f28 ?v0 ?v1) f1) (= (f28 ?v0 (f17 (f18 ?v2) ?v1)) f1))))
(assert (forall ((?v0 S4) (?v1 S5) (?v2 S4)) (=> (= (f12 ?v0 ?v1) f1) (= (f12 ?v0 (f29 (f30 ?v2) ?v1)) f1))))
(assert (forall ((?v0 S2) (?v1 S3) (?v2 S3)) (let ((?v_0 (f18 ?v0))) (=> (not (= (f28 ?v0 ?v1) f1)) (=> (not (= (f28 ?v0 ?v2) f1)) (= (= (f17 ?v_0 ?v1) (f17 ?v_0 ?v2)) (= ?v1 ?v2)))))))
(assert (forall ((?v0 S4) (?v1 S5) (?v2 S5)) (let ((?v_0 (f30 ?v0))) (=> (not (= (f12 ?v0 ?v1) f1)) (=> (not (= (f12 ?v0 ?v2) f1)) (= (= (f29 ?v_0 ?v1) (f29 ?v_0 ?v2)) (= ?v1 ?v2)))))))
(assert (forall ((?v0 S2) (?v1 S3) (?v2 S2)) (= (= (f3 (f17 (f18 ?v0) ?v1) ?v2) f1) (or (= ?v0 ?v2) (= (f3 ?v1 ?v2) f1)))))
(assert (forall ((?v0 S4) (?v1 S5) (?v2 S4)) (= (= (f5 (f29 (f30 ?v0) ?v1) ?v2) f1) (or (= ?v0 ?v2) (= (f5 ?v1 ?v2) f1)))))
(assert (forall ((?v0 S2) (?v1 S2) (?v2 S3)) (= (= (f28 ?v0 (f17 (f18 ?v1) ?v2)) f1) (or (= ?v0 ?v1) (= (f28 ?v0 ?v2) f1)))))
(assert (forall ((?v0 S4) (?v1 S4) (?v2 S5)) (= (= (f12 ?v0 (f29 (f30 ?v1) ?v2)) f1) (or (= ?v0 ?v1) (= (f12 ?v0 ?v2) f1)))))
(assert (forall ((?v0 S2) (?v1 S2) (?v2 S3)) (let ((?v_1 (f18 ?v0)) (?v_0 (f18 ?v1))) (= (f17 ?v_1 (f17 ?v_0 ?v2)) (f17 ?v_0 (f17 ?v_1 ?v2))))))
(assert (forall ((?v0 S4) (?v1 S4) (?v2 S5)) (let ((?v_1 (f30 ?v0)) (?v_0 (f30 ?v1))) (= (f29 ?v_1 (f29 ?v_0 ?v2)) (f29 ?v_0 (f29 ?v_1 ?v2))))))
(assert (forall ((?v0 S2) (?v1 S3)) (let ((?v_0 (f18 ?v0))) (let ((?v_1 (f17 ?v_0 ?v1))) (= (f17 ?v_0 ?v_1) ?v_1)))))
(assert (forall ((?v0 S4) (?v1 S5)) (let ((?v_0 (f30 ?v0))) (let ((?v_1 (f29 ?v_0 ?v1))) (= (f29 ?v_0 ?v_1) ?v_1)))))
(check-sat)
(exit)
